c colouring generated by benchmark framework
p edge 300 21375
v 1 17
v 2 1
v 3 1
v 4 10
v 5 3
v 6 17
v 7 5
v 8 19
v 9 2
v 10 7
v 11 10
v 12 16
v 13 6
v 14 11
v 15 4
v 16 12
v 17 10
v 18 10
v 19 5
v 20 15
v 21 5
v 22 2
v 23 1
v 24 0
v 25 4
v 26 19
v 27 19
v 28 19
v 29 0
v 30 17
v 31 5
v 32 6
v 33 7
v 34 7
v 35 3
v 36 0
v 37 0
v 38 14
v 39 11
v 40 11
v 41 9
v 42 9
v 43 10
v 44 3
v 45 12
v 46 10
v 47 7
v 48 18
v 49 6
v 50 13
v 51 7
v 52 3
v 53 15
v 54 11
v 55 19
v 56 5
v 57 17
v 58 13
v 59 16
v 60 1
v 61 8
v 62 14
v 63 13
v 64 19
v 65 10
v 66 4
v 67 10
v 68 10
v 69 1
v 70 15
v 71 7
v 72 12
v 73 19
v 74 13
v 75 5
v 76 0
v 77 14
v 78 0
v 79 14
v 80 14
v 81 18
v 82 11
v 83 6
v 84 16
v 85 14
v 86 18
v 87 13
v 88 12
v 89 8
v 90 16
v 91 9
v 92 18
v 93 9
v 94 5
v 95 8
v 96 5
v 97 1
v 98 15
v 99 1
v 100 14
v 101 12
v 102 11
v 103 14
v 104 19
v 105 6
v 106 13
v 107 3
v 108 18
v 109 8
v 110 8
v 111 17
v 112 15
v 113 4
v 114 7
v 115 6
v 116 6
v 117 14
v 118 3
v 119 11
v 120 2
v 121 8
v 122 2
v 123 19
v 124 8
v 125 1
v 126 1
v 127 3
v 128 9
v 129 4
v 130 9
v 131 7
v 132 3
v 133 10
v 134 9
v 135 0
v 136 12
v 137 13
v 138 9
v 139 15
v 140 2
v 141 11
v 142 12
v 143 9
v 144 8
v 145 7
v 146 15
v 147 9
v 148 16
v 149 19
v 150 13
v 151 16
v 152 0
v 153 5
v 154 19
v 155 4
v 156 10
v 157 17
v 158 3
v 159 4
v 160 5
v 161 4
v 162 16
v 163 4
v 164 17
v 165 9
v 166 9
v 167 1
v 168 15
v 169 13
v 170 16
v 171 19
v 172 11
v 173 11
v 174 18
v 175 17
v 176 12
v 177 3
v 178 1
v 179 17
v 180 11
v 181 0
v 182 0
v 183 13
v 184 6
v 185 18
v 186 8
v 187 15
v 188 2
v 189 6
v 190 2
v 191 8
v 192 3
v 193 5
v 194 16
v 195 4
v 196 9
v 197 11
v 198 7
v 199 7
v 200 1
v 201 19
v 202 8
v 203 12
v 204 5
v 205 14
v 206 12
v 207 14
v 208 8
v 209 8
v 210 4
v 211 13
v 212 18
v 213 10
v 214 15
v 215 15
v 216 17
v 217 5
v 218 18
v 219 0
v 220 16
v 221 4
v 222 19
v 223 17
v 224 11
v 225 4
v 226 3
v 227 18
v 228 2
v 229 6
v 230 17
v 231 2
v 232 19
v 233 5
v 234 0
v 235 11
v 236 18
v 237 17
v 238 12
v 239 16
v 240 12
v 241 16
v 242 8
v 243 9
v 244 12
v 245 15
v 246 18
v 247 13
v 248 4
v 249 17
v 250 14
v 251 7
v 252 0
v 253 0
v 254 2
v 255 16
v 256 9
v 257 6
v 258 13
v 259 14
v 260 14
v 261 13
v 262 17
v 263 1
v 264 1
v 265 3
v 266 7
v 267 14
v 268 6
v 269 2
v 270 7
v 271 7
v 272 5
v 273 6
v 274 2
v 275 15
v 276 18
v 277 8
v 278 2
v 279 13
v 280 12
v 281 0
v 282 10
v 283 15
v 284 3
v 285 15
v 286 11
v 287 4
v 288 16
v 289 6
v 290 16
v 291 1
v 292 18
v 293 3
v 294 6
v 295 10
v 296 12
v 297 18
v 298 2
v 299 10
v 300 2
